start_domain = 2;
target_domain = 1;
vnflist_size = 8;
vnflist = [10,4,3,1,1,1,4,10];
vnf_arcs = [|1,2|2,3|3,4|3,5|3,6|3,7|7,8|];
proximity_to_source = [0,1,0,0,0,0,0,0];
proximity_to_destination = [0,0,0,0,0,0,1,0];
n_domain_constraints = 1;
domain_constraints = [|3,1,1,1|];
